WARNING: for repeatability, setting FPU to use double precision
============================[ Problem Statistics ]=============================
|                                                                             |
|  Number of variables:         42387                                         |
|  Number of clauses:          183641                                         |
|  Parse time:                   0.04 s                                       |
|                                                                             |
c ============================[ Search Statistics ]==============================
c | Conflicts |          ORIGINAL         |          LEARNT          | Progress |
c |           |    Vars  Clauses Literals |    Limit  Clauses Lit/Cl |          |
c ===============================================================================
c Switched to VSIDS.
c Switched to LRB.
c Switched to VSIDS.
c ===============================================================================
restarts                  : 390
conflicts                 : 66362          (1230 /sec)
decisions                 : 1659938        (0.00 % random) (30768 /sec)
propagations              : 146437337      (2714334 /sec)
conflict literals         : 7580167        (22.50 % deleted)

conflicts w/ DIP found    : 52115          (78.53 % of conflicts)
conflicts w/ dangerous DIP: 0              (0.00 % of conflicts)
conflicts w/ DIP-learning : 10             (0.02 % of conflicts)
decisions on ext vars     : 635            (0.04 % of decisions)
total ext vars            : 6           
tried delete ext vars     : 0           
deleted ext vars          : 0           
max ext vars              : 6           

Memory used               : 67.00 MB
CPU time                  : 53.9496 s
DIP computation time      : 1.57644 s (2.92 % of total time)
ER_sel time               : 0.083248 s
ER_add time               : 7.7e-05 s
ER_delC time              : 0 s
ER_delV time              : 0 s
ER_sub time               : 0.108534 s
ER_stat time              : 0 s

UNSATISFIABLE
